c FILE /home/rafael/Documents/HappySet/MIHS/inputs/happygen/output/graph_scale_free_k7_p0.5_v50_20241127_082506.txt
c SOURCE This is a scale-free graph formed for the happy graph colouring problem.
c DESCRIPTION It was generated using the problem generator of Rhyd Lewis
c
c GRAPH STATS
c Seed                             = -1116748235
c Number of Nodes                  = 50
c Number of colours k              = 7
c Number of pre-assignments        = 25
c Number of links per new node     = 5
c Density                          = 0.191837
c 
c The degrees of nodes 1 to 50, respectively, are as follows 
c [24, 22, 22, 22, 18, 18, 18, 17, 15, 14, 13, 12, 12, 11, 11, 10, 10, 9, 9, 8, 8, 7, 7, 7, 7, 7, 
c  7, 6, 6, 6, 6, 6, 6, 6, 6, 6, 6, 5, 5, 5, 5, 5, 5, 5, 5, 5, 5, 5, 5, 5] 
c  
p edge 50 235 7
e 1 2
e 1 3
e 1 4
e 1 5
e 1 6
e 1 8
e 1 9
e 1 10
e 1 11
e 1 13
e 1 14
e 1 15
e 1 17
e 1 19
e 1 20
e 1 23
e 1 28
e 1 29
e 1 30
e 1 32
e 1 34
e 1 36
e 1 37
e 1 41
e 2 3
e 2 4
e 2 5
e 2 6
e 2 7
e 2 8
e 2 9
e 2 10
e 2 12
e 2 16
e 2 17
e 2 18
e 2 23
e 2 29
e 2 32
e 2 33
e 2 35
e 2 40
e 2 41
e 2 42
e 2 43
e 3 4
e 3 5
e 3 6
e 3 7
e 3 8
e 3 9
e 3 10
e 3 12
e 3 13
e 3 14
e 3 19
e 3 20
e 3 21
e 3 22
e 3 35
e 3 36
e 3 37
e 3 44
e 3 45
e 3 49
e 4 6
e 4 7
e 4 8
e 4 11
e 4 14
e 4 16
e 4 20
e 4 22
e 4 27
e 4 28
e 4 31
e 4 42
e 4 44
e 4 45
e 4 46
e 4 47
e 4 48
e 4 49
e 4 50
e 5 6
e 5 7
e 5 9
e 5 10
e 5 11
e 5 12
e 5 13
e 5 15
e 5 16
e 5 29
e 5 31
e 5 32
e 5 34
e 5 37
e 5 43
e 6 7
e 6 9
e 6 10
e 6 12
e 6 13
e 6 21
e 6 22
e 6 25
e 6 29
e 6 33
e 6 37
e 6 44
e 6 50
e 7 8
e 7 10
e 7 13
e 7 17
e 7 18
e 7 24
e 7 25
e 7 26
e 7 28
e 7 30
e 7 34
e 7 39
e 7 50
e 8 16
e 8 18
e 8 19
e 8 21
e 8 22
e 8 23
e 8 35
e 8 37
e 8 43
e 8 46
e 8 47
e 8 49
e 9 11
e 9 15
e 9 18
e 9 29
e 9 31
e 9 33
e 9 36
e 9 38
e 9 40
e 9 49
e 10 12
e 10 16
e 10 20
e 10 23
e 10 24
e 10 25
e 10 31
e 10 39
e 11 12
e 11 15
e 11 19
e 11 20
e 11 21
e 11 27
e 11 28
e 11 38
e 11 45
e 12 15
e 12 19
e 12 22
e 12 23
e 12 47
e 12 48
e 13 17
e 13 21
e 13 24
e 13 28
e 13 36
e 13 42
e 13 46
e 14 16
e 14 27
e 14 29
e 14 30
e 14 31
e 14 38
e 14 41
e 14 50
e 15 26
e 15 33
e 15 36
e 15 39
e 15 44
e 15 48
e 16 25
e 16 26
e 16 30
e 16 35
e 17 22
e 17 24
e 17 27
e 17 40
e 17 49
e 17 50
e 18 20
e 18 33
e 18 38
e 18 40
e 18 42
e 19 27
e 19 40
e 19 45
e 19 48
e 20 30
e 20 39
e 21 25
e 21 41
e 21 47
e 22 24
e 23 42
e 23 46
e 24 32
e 24 45
e 25 26
e 25 32
e 26 32
e 26 34
e 26 41
e 27 43
e 27 46
e 28 35
e 30 39
e 31 34
e 33 38
e 34 48
e 35 47
e 36 44
e 37 43
n 9 3
n 12 2
n 16 6
n 20 6
n 21 1
n 22 2
n 23 2
n 27 2
n 28 4
n 29 3
n 30 6
n 31 3
n 32 7
n 33 3
n 36 3
n 37 2
n 38 3
n 40 3
n 42 2
n 44 3
n 45 3
n 46 2
n 48 2
n 49 3
n 50 5
